c ind 10 112 125 127 129 13 131 133 135 137 0
c ind 139 221 223 225 227 229 231 233 235 237 0
c ind 239 241 243 245 247 249 251 30 31 33 0
c ind 35 37 39 41 43 45 47 49 5 51 0
c ind 53 55 57 59 6 61 70 73 84 87 0
c ind 9 94 0
p cnf 329 996
-1 -2 11 0
-1 2 205 0
-100 101 0
-100 113 0
-101 102 0
-101 113 0
-102 103 0
-102 113 0
-103 104 0
-103 113 0
-104 105 0
-104 113 0
-105 106 0
-105 113 0
-106 107 0
-106 113 0
-107 108 0
-107 113 0
-108 109 0
-108 113 0
-109 110 0
-109 113 0
-11 -12 14 0
-11 12 62 0
-110 111 0
-110 113 0
-111 -112 31 0
-111 -31 112 0
-113 -31 31 0
-114 -115 116 0
-114 115 115 0
-115 -112 13 0
-115 -13 112 0
-116 -117 13 0
-116 117 31 0
-117 118 0
-117 138 0
-118 119 0
-118 136 0
-119 120 0
-119 134 0
-12 -13 9 0
-12 -9 13 0
-120 121 0
-120 132 0
-121 122 0
-121 130 0
-122 123 0
-122 128 0
-123 124 0
-123 126 0
-124 -125 31 0
-124 -31 125 0
-126 -127 31 0
-126 -31 127 0
-128 -129 31 0
-128 -31 129 0
-130 -131 31 0
-130 -31 131 0
-132 -13 133 0
-132 -133 13 0
-134 -135 31 0
-134 -31 135 0
-136 -137 31 0
-136 -31 137 0
-138 -139 31 0
-138 -31 139 0
-14 15 0
-14 60 0
-140 -141 205 0
-140 141 252 0
-141 -67 142 0
-141 67 146 0
-142 -75 31 0
-142 75 143 0
-143 -77 144 0
-143 77 146 0
-144 -115 145 0
-144 115 146 0
-145 -146 146 0
-145 146 159 0
-146 113 0
-146 147 0
-147 113 0
-147 148 0
-148 113 0
-148 149 0
-149 113 0
-149 150 0
-15 16 0
-15 58 0
-150 113 0
-150 151 0
-151 113 0
-151 152 0
-152 113 0
-152 153 0
-153 113 0
-153 154 0
-154 138 0
-154 155 0
-155 136 0
-155 156 0
-156 134 0
-156 157 0
-157 121 0
-157 158 0
-158 -133 31 0
-158 -31 133 0
-159 113 0
-159 160 0
-16 17 0
-16 56 0
-160 113 0
-160 161 0
-161 113 0
-161 162 0
-162 113 0
-162 163 0
-163 113 0
-163 164 0
-164 113 0
-164 165 0
-165 113 0
-165 166 0
-166 113 0
-166 167 0
-167 168 0
-167 201 0
-168 169 0
-168 197 0
-169 170 0
-169 193 0
-17 18 0
-17 54 0
-170 171 0
-170 189 0
-171 172 0
-171 185 0
-172 173 0
-172 181 0
-173 174 0
-173 177 0
-174 -175 31 0
-174 -31 175 0
-175 -176 -31 0
-175 176 31 0
-176 -125 -13 0
-176 125 13 0
-177 -178 31 0
-177 -31 178 0
-178 -179 -180 0
-178 179 180 0
-179 -127 -31 0
-179 127 31 0
-18 19 0
-18 52 0
-180 125 31 0
-181 -182 31 0
-181 -31 182 0
-182 -183 -184 0
-182 183 184 0
-183 -129 -31 0
-183 129 31 0
-184 127 0
-184 180 0
-185 -186 31 0
-185 -31 186 0
-186 -187 -188 0
-186 187 188 0
-187 -131 -31 0
-187 131 31 0
-188 129 0
-188 184 0
-189 -190 31 0
-189 -31 190 0
-19 20 0
-19 50 0
-190 -191 -192 0
-190 191 192 0
-191 -133 -31 0
-191 133 31 0
-192 131 0
-192 188 0
-193 -194 31 0
-193 -31 194 0
-194 -195 -196 0
-194 195 196 0
-195 -135 -31 0
-195 135 31 0
-196 133 0
-196 192 0
-197 -198 31 0
-197 -31 198 0
-198 -199 -200 0
-198 199 200 0
-199 -137 -31 0
-199 137 31 0
-2 3 7 0
-20 21 0
-20 48 0
-200 135 0
-200 196 0
-201 -202 31 0
-201 -31 202 0
-202 -203 -204 0
-202 203 204 0
-203 -139 -31 0
-203 139 31 0
-204 137 0
-204 200 0
-205 206 0
-205 250 0
-206 207 0
-206 248 0
-207 208 0
-207 246 0
-208 209 0
-208 244 0
-209 210 0
-209 242 0
-21 22 0
-21 46 0
-210 211 0
-210 240 0
-211 212 0
-211 238 0
-212 213 0
-212 236 0
-213 214 0
-213 234 0
-214 215 0
-214 232 0
-215 216 0
-215 230 0
-216 217 0
-216 228 0
-217 218 0
-217 226 0
-218 219 0
-218 224 0
-219 220 0
-219 222 0
-22 23 0
-22 44 0
-220 -221 30 0
-220 -30 221 0
-222 -223 33 0
-222 -33 223 0
-224 -225 35 0
-224 -35 225 0
-226 -227 37 0
-226 -37 227 0
-228 -229 39 0
-228 -39 229 0
-23 24 0
-23 42 0
-230 -231 41 0
-230 -41 231 0
-232 -233 43 0
-232 -43 233 0
-234 -235 45 0
-234 -45 235 0
-236 -237 47 0
-236 -47 237 0
-238 -239 49 0
-238 -49 239 0
-24 25 0
-24 40 0
-240 -241 51 0
-240 -51 241 0
-242 -243 53 0
-242 -53 243 0
-244 -245 55 0
-244 -55 245 0
-246 -247 57 0
-246 -57 247 0
-248 -249 59 0
-248 -59 249 0
-25 26 0
-25 38 0
-250 -251 61 0
-250 -61 251 0
-252 253 0
-252 326 0
-253 254 0
-253 322 0
-254 255 0
-254 318 0
-255 256 0
-255 314 0
-256 257 0
-256 310 0
-257 258 0
-257 306 0
-258 259 0
-258 302 0
-259 260 0
-259 298 0
-26 27 0
-26 36 0
-260 261 0
-260 294 0
-261 262 0
-261 290 0
-262 263 0
-262 286 0
-263 264 0
-263 282 0
-264 265 0
-264 278 0
-265 266 0
-265 274 0
-266 267 0
-266 270 0
-267 -268 30 0
-267 -30 268 0
-268 -269 -31 0
-268 269 31 0
-269 -221 -31 0
-269 221 31 0
-27 28 0
-27 34 0
-270 -271 33 0
-270 -33 271 0
-271 -272 -273 0
-271 272 273 0
-272 -223 -31 0
-272 223 31 0
-273 221 0
-273 31 0
-274 -275 35 0
-274 -35 275 0
-275 -276 -277 0
-275 276 277 0
-276 -225 -31 0
-276 225 31 0
-277 223 0
-277 273 0
-278 -279 37 0
-278 -37 279 0
-279 -280 -281 0
-279 280 281 0
-28 29 0
-28 32 0
-280 -227 -31 0
-280 227 31 0
-281 225 0
-281 277 0
-282 -283 39 0
-282 -39 283 0
-283 -284 -285 0
-283 284 285 0
-284 -229 -31 0
-284 229 31 0
-285 227 0
-285 281 0
-286 -287 41 0
-286 -41 287 0
-287 -288 -289 0
-287 288 289 0
-288 -231 -31 0
-288 231 31 0
-289 229 0
-289 285 0
-29 -30 31 0
-29 -31 30 0
-290 -291 43 0
-290 -43 291 0
-291 -292 -293 0
-291 292 293 0
-292 -233 -31 0
-292 233 31 0
-293 231 0
-293 289 0
-294 -295 45 0
-294 -45 295 0
-295 -296 -297 0
-295 296 297 0
-296 -235 -31 0
-296 235 31 0
-297 233 0
-297 293 0
-298 -299 47 0
-298 -47 299 0
-299 -300 -301 0
-299 300 301 0
-3 -4 0
-300 -237 -13 0
-300 237 13 0
-301 235 0
-301 297 0
-302 -303 49 0
-302 -49 303 0
-303 -304 -305 0
-303 304 305 0
-304 -239 -31 0
-304 239 31 0
-305 237 301 0
-306 -307 51 0
-306 -51 307 0
-307 -308 -309 0
-307 308 309 0
-308 -241 -31 0
-308 241 31 0
-309 239 0
-309 305 0
-31 0
-310 -311 53 0
-310 -53 311 0
-311 -312 -313 0
-311 312 313 0
-312 -243 -31 0
-312 243 31 0
-313 241 0
-313 309 0
-314 -315 55 0
-314 -55 315 0
-315 -316 -317 0
-315 316 317 0
-316 -245 -31 0
-316 245 31 0
-317 243 0
-317 313 0
-318 -319 57 0
-318 -57 319 0
-319 -320 -321 0
-319 320 321 0
-32 -31 33 0
-32 -33 31 0
-320 -247 -31 0
-320 247 31 0
-321 245 0
-321 317 0
-322 -323 59 0
-322 -59 323 0
-323 -324 -325 0
-323 324 325 0
-324 -249 -31 0
-324 249 31 0
-325 247 0
-325 321 0
-326 -327 61 0
-326 -61 327 0
-327 -328 -329 0
-327 328 329 0
-328 -251 -31 0
-328 251 31 0
-329 249 0
-329 325 0
-34 -31 35 0
-34 -35 31 0
-36 -31 37 0
-36 -37 31 0
-38 -31 39 0
-38 -39 31 0
-4 -5 6 0
-4 -6 5 0
-40 -31 41 0
-40 -41 31 0
-42 -31 43 0
-42 -43 31 0
-44 -31 45 0
-44 -45 31 0
-46 -31 47 0
-46 -47 31 0
-48 -31 49 0
-48 -49 31 0
-50 -31 51 0
-50 -51 31 0
-52 -31 53 0
-52 -53 31 0
-54 -31 55 0
-54 -55 31 0
-56 -31 57 0
-56 -57 31 0
-58 -31 59 0
-58 -59 31 0
-60 -31 61 0
-60 -61 31 0
-62 -63 65 0
-62 63 205 0
-63 3 0
-63 64 0
-64 -13 5 0
-64 -5 13 0
-65 -66 140 0
-65 66 205 0
-66 -67 74 0
-66 67 115 0
-67 68 71 0
-68 -69 0
-69 -6 70 0
-69 -70 6 0
-7 -8 0
-71 -72 0
-72 -10 73 0
-72 -73 10 0
-74 -75 13 0
-74 75 76 0
-75 -10 13 0
-75 -13 10 0
-76 -77 79 0
-76 77 115 0
-77 68 0
-77 78 0
-78 -13 6 0
-78 -6 13 0
-79 -80 95 0
-79 80 115 0
-8 -10 9 0
-8 -9 10 0
-80 -81 88 0
-80 81 93 0
-81 82 85 0
-82 -83 0
-83 -70 84 0
-83 -84 70 0
-85 -86 0
-86 -73 87 0
-86 -87 73 0
-88 -89 31 0
-88 89 90 0
-89 -13 73 0
-89 -73 13 0
-90 -91 31 0
-90 91 93 0
-91 82 0
-91 92 0
-92 -13 70 0
-92 -70 13 0
-93 -13 94 0
-93 -94 13 0
-95 -96 13 0
-95 96 114 0
-96 113 0
-96 97 0
-97 113 0
-97 98 0
-98 113 0
-98 99 0
-99 100 0
-99 113 0
1 -11 -205 0
1 -2 -11 0
1 0
1 2 -205 0
100 -101 -113 0
101 -102 -113 0
102 -103 -113 0
103 -104 -113 0
104 -105 -113 0
105 -106 -113 0
106 -107 -113 0
107 -108 -113 0
108 -109 -113 0
109 -110 -113 0
11 -12 -14 0
11 -14 -62 0
11 12 -62 0
110 -111 -113 0
111 -112 -31 0
111 112 31 0
113 -31 -31 0
113 31 31 0
114 -115 -116 0
114 -116 -115 0
114 115 -115 0
115 -112 -13 0
115 112 13 0
116 -117 -13 0
116 -13 -31 0
116 117 -31 0
117 -118 -138 0
118 -119 -136 0
119 -120 -134 0
12 -9 -13 0
12 9 13 0
120 -121 -132 0
121 -122 -130 0
122 -123 -128 0
123 -124 -126 0
124 -125 -31 0
124 125 31 0
126 -127 -31 0
126 127 31 0
128 -129 -31 0
128 129 31 0
13 0
130 -131 -31 0
130 131 31 0
132 -133 -13 0
132 133 13 0
134 -135 -31 0
134 135 31 0
136 -137 -31 0
136 137 31 0
138 -139 -31 0
138 139 31 0
14 -15 -60 0
140 -141 -205 0
140 -205 -252 0
140 141 -252 0
141 -142 -146 0
141 -67 -142 0
141 67 -146 0
142 -31 -143 0
142 -75 -31 0
142 75 -143 0
143 -144 -146 0
143 -77 -144 0
143 77 -146 0
144 -115 -145 0
144 -145 -146 0
144 115 -146 0
145 -146 -146 0
145 -146 -159 0
145 146 -159 0
146 -147 -113 0
147 -148 -113 0
148 -149 -113 0
149 -150 -113 0
15 -16 -58 0
150 -151 -113 0
151 -152 -113 0
152 -153 -113 0
153 -154 -113 0
154 -155 -138 0
155 -156 -136 0
156 -157 -134 0
157 -121 -158 0
158 -133 -31 0
158 133 31 0
159 -160 -113 0
16 -17 -56 0
160 -161 -113 0
161 -162 -113 0
162 -163 -113 0
163 -164 -113 0
164 -165 -113 0
165 -166 -113 0
166 -167 -113 0
167 -168 -201 0
168 -169 -197 0
169 -170 -193 0
17 -18 -54 0
170 -171 -189 0
171 -172 -185 0
172 -173 -181 0
173 -174 -177 0
174 -175 -31 0
174 175 31 0
175 -176 31 0
175 -31 176 0
176 -125 13 0
176 -13 125 0
177 -178 -31 0
177 178 31 0
178 -179 180 0
178 -180 179 0
179 -127 31 0
179 -31 127 0
18 -19 -52 0
180 -125 0
180 -31 0
181 -182 -31 0
181 182 31 0
182 -183 184 0
182 -184 183 0
183 -129 31 0
183 -31 129 0
184 -127 -180 0
185 -186 -31 0
185 186 31 0
186 -187 188 0
186 -188 187 0
187 -131 31 0
187 -31 131 0
188 -129 -184 0
189 -190 -31 0
189 190 31 0
19 -20 -50 0
190 -191 192 0
190 -192 191 0
191 -133 31 0
191 -31 133 0
192 -131 -188 0
193 -194 -31 0
193 194 31 0
194 -195 196 0
194 -196 195 0
195 -135 31 0
195 -31 135 0
196 -133 -192 0
197 -198 -31 0
197 198 31 0
198 -199 200 0
198 -200 199 0
199 -137 31 0
199 -31 137 0
2 -3 0
2 -7 0
20 -21 -48 0
200 -135 -196 0
201 -202 -31 0
201 202 31 0
202 -203 204 0
202 -204 203 0
203 -139 31 0
203 -31 139 0
204 -137 -200 0
205 -206 -250 0
206 -207 -248 0
207 -208 -246 0
208 -209 -244 0
209 -210 -242 0
21 -22 -46 0
210 -211 -240 0
211 -212 -238 0
212 -213 -236 0
213 -214 -234 0
214 -215 -232 0
215 -216 -230 0
216 -217 -228 0
217 -218 -226 0
218 -219 -224 0
219 -220 -222 0
22 -23 -44 0
220 -30 -221 0
220 30 221 0
222 -33 -223 0
222 33 223 0
224 -35 -225 0
224 35 225 0
226 -37 -227 0
226 37 227 0
228 -39 -229 0
228 39 229 0
23 -24 -42 0
230 -41 -231 0
230 41 231 0
232 -43 -233 0
232 43 233 0
234 -45 -235 0
234 45 235 0
236 -47 -237 0
236 47 237 0
238 -49 -239 0
238 49 239 0
24 -25 -40 0
240 -51 -241 0
240 51 241 0
242 -53 -243 0
242 53 243 0
244 -55 -245 0
244 55 245 0
246 -57 -247 0
246 57 247 0
248 -59 -249 0
248 59 249 0
25 -26 -38 0
250 -61 -251 0
250 61 251 0
252 -253 -326 0
253 -254 -322 0
254 -255 -318 0
255 -256 -314 0
256 -257 -310 0
257 -258 -306 0
258 -259 -302 0
259 -260 -298 0
26 -27 -36 0
260 -261 -294 0
261 -262 -290 0
262 -263 -286 0
263 -264 -282 0
264 -265 -278 0
265 -266 -274 0
266 -267 -270 0
267 -30 -268 0
267 30 268 0
268 -269 31 0
268 -31 269 0
269 -221 31 0
269 -31 221 0
27 -28 -34 0
270 -33 -271 0
270 33 271 0
271 -272 273 0
271 -273 272 0
272 -223 31 0
272 -31 223 0
273 -221 -31 0
274 -35 -275 0
274 35 275 0
275 -276 277 0
275 -277 276 0
276 -225 31 0
276 -31 225 0
277 -223 -273 0
278 -37 -279 0
278 37 279 0
279 -280 281 0
279 -281 280 0
28 -29 -32 0
280 -227 31 0
280 -31 227 0
281 -225 -277 0
282 -39 -283 0
282 39 283 0
283 -284 285 0
283 -285 284 0
284 -229 31 0
284 -31 229 0
285 -227 -281 0
286 -41 -287 0
286 41 287 0
287 -288 289 0
287 -289 288 0
288 -231 31 0
288 -31 231 0
289 -229 -285 0
29 -30 -31 0
29 30 31 0
290 -43 -291 0
290 43 291 0
291 -292 293 0
291 -293 292 0
292 -233 31 0
292 -31 233 0
293 -231 -289 0
294 -45 -295 0
294 45 295 0
295 -296 297 0
295 -297 296 0
296 -235 31 0
296 -31 235 0
297 -233 -293 0
298 -47 -299 0
298 47 299 0
299 -300 301 0
299 -301 300 0
3 4 0
300 -13 237 0
300 -237 13 0
301 -235 -297 0
302 -49 -303 0
302 49 303 0
303 -304 305 0
303 -305 304 0
304 -239 31 0
304 -31 239 0
305 -237 0
305 -301 0
306 -51 -307 0
306 51 307 0
307 -308 309 0
307 -309 308 0
308 -241 31 0
308 -31 241 0
309 -239 -305 0
310 -53 -311 0
310 53 311 0
311 -312 313 0
311 -313 312 0
312 -243 31 0
312 -31 243 0
313 -241 -309 0
314 -55 -315 0
314 55 315 0
315 -316 317 0
315 -317 316 0
316 -245 31 0
316 -31 245 0
317 -243 -313 0
318 -57 -319 0
318 57 319 0
319 -320 321 0
319 -321 320 0
32 -33 -31 0
32 33 31 0
320 -247 31 0
320 -31 247 0
321 -245 -317 0
322 -59 -323 0
322 59 323 0
323 -324 325 0
323 -325 324 0
324 -249 31 0
324 -31 249 0
325 -247 -321 0
326 -61 -327 0
326 61 327 0
327 -328 329 0
327 -329 328 0
328 -251 31 0
328 -31 251 0
329 -249 -325 0
34 -35 -31 0
34 35 31 0
36 -37 -31 0
36 37 31 0
38 -39 -31 0
38 39 31 0
4 -5 -6 0
4 5 6 0
40 -41 -31 0
40 41 31 0
42 -43 -31 0
42 43 31 0
44 -45 -31 0
44 45 31 0
46 -47 -31 0
46 47 31 0
48 -49 -31 0
48 49 31 0
50 -51 -31 0
50 51 31 0
52 -53 -31 0
52 53 31 0
54 -55 -31 0
54 55 31 0
56 -57 -31 0
56 57 31 0
58 -59 -31 0
58 59 31 0
60 -61 -31 0
60 61 31 0
62 -63 -65 0
62 -65 -205 0
62 63 -205 0
63 -3 -64 0
64 -5 -13 0
64 5 13 0
65 -140 -205 0
65 -66 -140 0
65 66 -205 0
66 -67 -74 0
66 -74 -115 0
66 67 -115 0
67 -68 0
67 -71 0
68 69 0
69 -6 -70 0
69 6 70 0
7 8 0
71 72 0
72 -10 -73 0
72 10 73 0
74 -13 -76 0
74 -75 -13 0
74 75 -76 0
75 -10 -13 0
75 10 13 0
76 -77 -79 0
76 -79 -115 0
76 77 -115 0
77 -68 -78 0
78 -6 -13 0
78 6 13 0
79 -80 -95 0
79 -95 -115 0
79 80 -115 0
8 -9 -10 0
8 9 10 0
80 -81 -88 0
80 -88 -93 0
80 81 -93 0
81 -82 0
81 -85 0
82 83 0
83 -70 -84 0
83 70 84 0
85 86 0
86 -73 -87 0
86 73 87 0
88 -31 -90 0
88 -89 -31 0
88 89 -90 0
89 -73 -13 0
89 73 13 0
90 -31 -93 0
90 -91 -31 0
90 91 -93 0
91 -82 -92 0
92 -70 -13 0
92 70 13 0
93 -94 -13 0
93 94 13 0
95 -13 -114 0
95 -96 -13 0
95 96 -114 0
96 -97 -113 0
97 -98 -113 0
98 -99 -113 0
99 -100 -113 0
